(set-logic QF_SLAH)

(declare-datatypes ((data_t 0)) (((c_data_t (sz Int)))))

(declare-heap (Int data_t))

(define-fun hck ((?x Int) (?y Int) (?v Int)) Bool
	(and
		(>= (- ?y ?x) 2) (<= (- ?y ?x) ?v)
		(sep (pto ?x (c_data_t (- ?y ?x))) (blk (+ ?x 1) ?y))
))

(define-fun-rec hls ((?x Int) (?y Int) (?v Int)) Bool
	(or
		(and (= ?x ?y) (_ emp Int data_t))
		(exists ((?w Int)) (sep (hck ?x ?w ?v) (hls ?w ?y ?v)))
))

(declare-const x0 Int)
(declare-const x1 Int)
(declare-const x2 Int)
(declare-const x3 Int)
(declare-const x4 Int)
(declare-const x5 Int)
(declare-const x6 Int)
(declare-const x7 Int)
(declare-const v6 Int)
(declare-const x8 Int)
(declare-const x9 Int)
(declare-const x10 Int)
(declare-const x11 Int)
(declare-const v10 Int)
(declare-const x12 Int)
(declare-const x13 Int)
(declare-const v12 Int)
(declare-const x14 Int)
(declare-const x15 Int)
(declare-const x16 Int)
(declare-const x17 Int)
(declare-const v16 Int)
(declare-const x18 Int)
(declare-const x19 Int)
(declare-const x20 Int)
(declare-const x21 Int)
(declare-const x22 Int)
(declare-const x23 Int)
(declare-const x24 Int)
(declare-const x25 Int)
(declare-const x26 Int)
(declare-const x27 Int)
(declare-const x28 Int)
(declare-const x29 Int)
(declare-const x30 Int)
(declare-const x31 Int)
(declare-const x32 Int)
(declare-const x33 Int)
(declare-const x34 Int)
(declare-const x35 Int)
(declare-const v34 Int)
(declare-const x36 Int)
(declare-const x37 Int)
(declare-const v36 Int)
(declare-const x38 Int)
(declare-const x39 Int)
(declare-const v38 Int)
(declare-const x40 Int)
(declare-const x41 Int)
(declare-const x42 Int)
(declare-const x43 Int)
(declare-const x44 Int)
(declare-const x45 Int)
(declare-const x46 Int)
(declare-const x47 Int)
(declare-const x48 Int)
(declare-const x49 Int)
(declare-const x50 Int)
(declare-const x51 Int)
(declare-const x52 Int)
(declare-const x53 Int)
(declare-const x54 Int)
(declare-const x55 Int)
(declare-const x56 Int)
(declare-const x57 Int)
(declare-const v56 Int)
(declare-const x58 Int)
(declare-const x59 Int)
(declare-const v58 Int)
(declare-const x60 Int)
(declare-const x61 Int)
(declare-const x62 Int)
(declare-const x63 Int)
(declare-const x64 Int)
(declare-const x65 Int)
(declare-const v64 Int)
(declare-const x66 Int)
(declare-const x67 Int)
(declare-const x68 Int)
(declare-const x69 Int)
(declare-const x70 Int)
(declare-const x71 Int)
(declare-const x72 Int)
(declare-const x73 Int)
(declare-const x74 Int)
(declare-const x75 Int)
(declare-const x76 Int)
(declare-const x77 Int)
(declare-const x78 Int)
(declare-const x79 Int)
(declare-const x80 Int)
(declare-const x81 Int)
(declare-const x82 Int)
(declare-const x83 Int)
(declare-const x84 Int)
(declare-const x85 Int)
(declare-const v84 Int)
(declare-const x86 Int)
(declare-const x87 Int)
(declare-const x88 Int)
(declare-const x89 Int)
(declare-const x90 Int)
(declare-const x91 Int)
(declare-const x92 Int)
(declare-const x93 Int)
(declare-const x94 Int)
(declare-const x95 Int)
(declare-const v94 Int)
(declare-const x96 Int)
(declare-const x97 Int)
(declare-const x98 Int)
(declare-const x99 Int)
(declare-const x100 Int)
(declare-const x101 Int)
(declare-const x102 Int)
(declare-const x103 Int)
(declare-const x104 Int)
(declare-const x105 Int)
(declare-const x106 Int)
(declare-const x107 Int)
(declare-const x108 Int)
(declare-const x109 Int)
(declare-const x110 Int)
(declare-const x111 Int)
(declare-const x112 Int)
(declare-const x113 Int)
(declare-const x114 Int)
(declare-const x115 Int)
(declare-const x116 Int)
(declare-const x117 Int)
(declare-const v116 Int)
(declare-const x118 Int)
(declare-const x119 Int)
(declare-const x120 Int)
(declare-const x121 Int)
(declare-const x122 Int)
(declare-const x123 Int)
(declare-const x124 Int)
(declare-const x125 Int)
(declare-const v124 Int)
(declare-const x126 Int)
(declare-const x127 Int)
(declare-const x128 Int)
(declare-const x129 Int)
(declare-const x130 Int)
(declare-const x131 Int)
(declare-const x132 Int)
(declare-const x133 Int)
(declare-const x134 Int)
(declare-const x135 Int)
(declare-const v134 Int)
(declare-const x136 Int)
(declare-const x137 Int)
(declare-const x138 Int)
(declare-const x139 Int)

(assert(and
(distinct x50 x94) (= x54 x66) (= x137 x37) (< x139 x70) (< x60 x100) (= x109 x77) (= x79 x44) (distinct x15 x91) (< x114 x13) (= x39 x66) (distinct x70 x8) (< x18 x78) (distinct x122 x86) (distinct x106 x60) (< x32 x9) (< x9 x136) (= x9 x92) (distinct x99 x5) (< x96 x10) 
(sep
(pto x0 (c_data_t x1))
(blk x2 x3)
(blk x4 x5)
(hls x6 x7 v6)
(pto x8 (c_data_t x9))
(hls x10 x11 v10)
(hls x12 x13 v12)
(blk x14 x15)
(hls x16 x17 v16)
(pto x18 (c_data_t x19))
(blk x20 x21)
(pto x22 (c_data_t x23))
(blk x24 x25)
(pto x26 (c_data_t x27))
(pto x28 (c_data_t x29))
(blk x30 x31)
(pto x32 (c_data_t x33))
(hls x34 x35 v34)
(hls x36 x37 v36)
(hls x38 x39 v38)
(pto x40 (c_data_t x41))
(blk x42 x43)
(blk x44 x45)
(blk x46 x47)
(blk x48 x49)
(pto x50 (c_data_t x51))
(pto x52 (c_data_t x53))
(pto x54 (c_data_t x55))
(hls x56 x57 v56)
(hls x58 x59 v58)
(blk x60 x61)
(pto x62 (c_data_t x63))
(hls x64 x65 v64)
(blk x66 x67)
(pto x68 (c_data_t x69))
(blk x70 x71)
(blk x72 x73)
(blk x74 x75)
(blk x76 x77)
(pto x78 (c_data_t x79))
(pto x80 (c_data_t x81))
(blk x82 x83)
(hls x84 x85 v84)
(blk x86 x87)
(blk x88 x89)
(blk x90 x91)
(blk x92 x93)
(hls x94 x95 v94)
(pto x96 (c_data_t x97))
(blk x98 x99)
(blk x100 x101)
(blk x102 x103)
(blk x104 x105)
(pto x106 (c_data_t x107))
(pto x108 (c_data_t x109))
(blk x110 x111)
(pto x112 (c_data_t x113))
(blk x114 x115)
(hls x116 x117 v116)
(blk x118 x119)
(blk x120 x121)
(blk x122 x123)
(hls x124 x125 v124)
(pto x126 (c_data_t x127))
(pto x128 (c_data_t x129))
(blk x130 x131)
(blk x132 x133)
(hls x134 x135 v134)
(pto x136 (c_data_t x137))
(pto x138 (c_data_t x139))
)))

(check-sat)